750
150 150
1 105 432
2 105 835
3 105 785
4 105 880
5 105 9
6 105 78
7 105 176
8 104 762
9 104 164
10 104 244
11 104 136
12 104 402
13 104 287
14 104 389
15 104 801
16 103 17
17 103 632
18 103 166
19 103 509
20 103 640
21 103 444
22 103 498
23 103 110
24 103 756
25 103 946
26 103 570
27 102 352
28 102 595
29 102 883
30 102 718
31 102 148
32 102 615
33 102 627
34 102 817
35 102 46
36 102 918
37 101 52
38 101 137
39 101 224
40 101 258
41 101 982
42 101 191
43 101 768
44 101 770
45 100 287
46 100 860
47 100 947
48 100 159
49 100 951
50 100 82
51 100 47
52 99 883
53 99 126
54 99 432
55 99 421
56 99 855
57 99 237
58 99 78
59 99 167
60 98 706
61 98 640
62 98 496
63 98 7
64 98 332
65 98 140
66 98 375
67 98 455
68 98 224
69 98 246
70 97 851
71 97 516
72 97 254
73 96 717
74 96 537
75 96 769
76 96 587
77 96 285
78 96 583
79 96 478
80 95 667
81 95 810
82 95 240
83 94 705
84 94 177
85 94 318
86 94 696
87 94 913
88 93 720
89 93 296
90 93 329
91 93 69
92 93 109
93 93 775
94 93 698
95 93 411
96 92 832
97 92 926
98 92 630
99 92 458
100 92 525
101 92 483
102 92 177
103 92 191
104 92 594
105 91 956
106 91 513
107 91 662
108 91 384
109 91 487
110 91 324
111 91 289
112 90 51
113 90 674
114 90 133
115 90 442
116 90 636
117 90 139
118 89 271
119 89 13
120 89 655
121 89 285
122 89 956
123 89 56
124 89 269
125 89 361
126 89 905
127 89 472
128 89 910
129 89 876
130 88 280
131 88 443
132 88 102
133 88 534
134 88 744
135 88 123
136 88 510
137 88 115
138 88 179
139 88 400
140 88 996
141 87 535
142 87 332
143 87 739
144 87 338
145 87 251
146 87 59
147 87 691
148 87 210
149 87 932
150 86 999
151 86 751
152 86 727
153 86 960
154 86 670
155 86 119
156 86 944
157 86 616
158 86 916
159 85 591
160 85 699
161 85 825
162 85 31
163 85 616
164 85 585
165 85 149
166 85 743
167 85 510
168 84 730
169 84 414
170 84 243
171 84 748
172 84 975
173 84 446
174 84 384
175 84 639
176 84 441
177 83 763
178 83 462
179 83 231
180 83 279
181 83 717
182 83 849
183 82 595
184 82 855
185 82 458
186 82 125
187 82 755
188 82 345
189 82 493
190 82 920
191 81 775
192 81 545
193 81 697
194 81 546
195 81 641
196 80 541
197 80 650
198 80 763
199 80 882
200 80 434
201 80 475
202 79 208
203 79 144
204 79 599
205 79 610
206 79 576
207 79 577
208 79 148
209 79 34
210 79 696
211 79 160
212 79 23
213 79 147
214 79 434
215 78 536
216 78 675
217 78 883
218 78 694
219 78 93
220 78 464
221 78 215
222 78 620
223 78 857
224 77 383
225 77 855
226 77 267
227 77 792
228 77 96
229 76 52
230 76 139
231 76 719
232 76 406
233 75 658
234 75 554
235 75 833
236 75 695
237 75 646
238 75 424
239 74 192
240 74 208
241 74 202
242 74 276
243 74 11
244 74 983
245 73 935
246 73 69
247 73 75
248 73 4
249 73 996
250 73 900
251 73 455
252 73 781
253 73 643
254 73 219
255 73 792
256 73 954
257 72 638
258 72 995
259 72 548
260 72 942
261 72 900
262 72 91
263 72 807
264 72 896
265 72 585
266 72 86
267 72 944
268 72 856
269 72 313
270 71 820
271 71 854
272 71 127
273 71 389
274 71 485
275 71 657
276 71 403
277 71 461
278 71 657
279 70 392
280 70 791
281 70 230
282 70 798
283 70 134
284 70 50
285 70 50
286 69 310
287 69 278
288 69 718
289 69 281
290 69 62
291 69 662
292 69 738
293 69 418
294 69 121
295 69 343
296 69 212
297 69 771
298 69 343
299 68 478
300 68 234
301 68 239
302 68 664
303 68 417
304 67 348
305 67 57
306 67 640
307 67 449
308 67 171
309 67 586
310 67 780
311 67 702
312 67 478
313 67 249
314 66 368
315 66 169
316 66 785
317 66 248
318 66 563
319 66 525
320 66 377
321 66 303
322 66 916
323 66 813
324 66 145
325 66 369
326 66 313
327 66 45
328 66 384
329 65 680
330 65 327
331 65 692
332 65 83
333 65 813
334 65 939
335 65 485
336 65 702
337 65 139
338 65 124
339 64 869
340 64 871
341 64 890
342 64 411
343 64 909
344 64 198
345 64 884
346 64 955
347 64 291
348 63 498
349 63 505
350 63 942
351 63 19
352 63 258
353 63 136
354 63 115
355 63 378
356 62 340
357 62 563
358 62 673
359 62 384
360 62 285
361 62 636
362 62 998
363 62 972
364 62 113
365 62 360
366 62 588
367 62 953
368 62 797
369 61 872
370 61 915
371 61 742
372 61 105
373 61 147
374 61 419
375 61 930
376 61 632
377 60 679
378 60 378
379 60 458
380 60 129
381 60 454
382 60 602
383 59 169
384 59 3
385 59 184
386 59 557
387 59 867
388 59 328
389 59 253
390 59 520
391 59 335
392 59 91
393 59 412
394 59 950
395 59 349
396 59 2
397 58 133
398 58 140
399 58 983
400 58 728
401 58 983
402 58 267
403 57 581
404 57 353
405 57 688
406 57 674
407 57 821
408 57 63
409 56 693
410 56 7
411 56 645
412 56 997
413 56 615
414 56 678
415 56 423
416 55 708
417 55 44
418 55 499
419 55 622
420 54 865
421 54 86
422 54 88
423 54 445
424 54 199
425 54 179
426 54 893
427 54 690
428 54 385
429 54 47
430 53 99
431 53 207
432 53 36
433 53 460
434 53 526
435 53 329
436 53 698
437 53 41
438 53 700
439 53 993
440 53 856
441 52 644
442 52 445
443 52 289
444 52 562
445 52 58
446 52 835
447 52 856
448 52 364
449 52 525
450 52 847
451 52 579
452 51 853
453 51 17
454 51 134
455 51 478
456 50 631
457 50 941
458 50 388
459 50 165
460 50 241
461 50 426
462 50 912
463 50 685
464 49 522
465 49 587
466 49 414
467 49 937
468 48 78
469 48 16
470 48 712
471 48 915
472 48 591
473 48 207
474 48 545
475 48 428
476 48 570
477 48 716
478 47 302
479 47 509
480 47 539
481 47 832
482 47 855
483 47 378
484 47 480
485 46 642
486 46 661
487 46 280
488 46 413
489 46 599
490 46 84
491 46 100
492 46 470
493 46 110
494 45 529
495 45 482
496 45 671
497 45 962
498 45 219
499 44 431
500 44 326
501 44 847
502 44 381
503 44 656
504 44 983
505 44 874
506 44 970
507 44 91
508 43 210
509 43 998
510 43 546
511 43 545
512 43 664
513 42 451
514 42 97
515 42 763
516 42 166
517 42 967
518 42 488
519 42 539
520 42 372
521 42 279
522 42 130
523 42 787
524 42 644
525 42 736
526 41 67
527 41 778
528 41 943
529 41 614
530 41 422
531 40 989
532 40 684
533 40 944
534 40 169
535 40 512
536 40 237
537 39 70
538 39 223
539 39 459
540 39 515
541 39 199
542 39 647
543 39 27
544 39 731
545 39 767
546 39 122
547 39 651
548 39 769
549 38 362
550 38 704
551 38 284
552 37 948
553 37 391
554 37 884
555 37 628
556 37 876
557 37 123
558 36 140
559 36 658
560 36 797
561 36 931
562 36 326
563 36 103
564 36 367
565 35 378
566 35 452
567 35 894
568 35 238
569 34 873
570 34 34
571 34 440
572 34 223
573 34 817
574 34 951
575 33 125
576 33 315
577 33 774
578 33 435
579 33 476
580 33 692
581 33 901
582 33 151
583 33 963
584 33 253
585 32 340
586 32 611
587 32 539
588 32 388
589 32 789
590 32 142
591 32 433
592 32 453
593 32 761
594 32 182
595 32 819
596 32 423
597 32 846
598 31 53
599 31 321
600 31 45
601 31 509
602 31 110
603 31 817
604 31 545
605 31 73
606 31 778
607 31 895
608 31 399
609 30 222
610 30 263
611 30 365
612 30 913
613 30 250
614 30 68
615 30 819
616 30 83
617 30 765
618 30 482
619 29 438
620 29 52
621 29 466
622 29 342
623 29 56
624 28 481
625 28 948
626 28 796
627 28 260
628 28 728
629 28 533
630 28 316
631 28 300
632 28 284
633 28 177
634 28 745
635 28 899
636 28 777
637 28 170
638 28 216
639 28 158
640 27 816
641 27 600
642 27 921
643 27 840
644 27 91
645 27 792
646 27 542
647 27 442
648 27 937
649 27 93
650 26 254
651 26 18
652 26 82
653 26 174
654 26 645
655 26 879
656 26 167
657 26 587
658 26 718
659 25 743
660 25 291
661 25 963
662 25 730
663 25 330
664 25 697
665 25 1000
666 25 703
667 25 378
668 24 183
669 24 328
670 24 517
671 24 131
672 24 633
673 24 319
674 24 828
675 24 214
676 24 879
677 23 698
678 23 793
679 23 515
680 23 763
681 23 362
682 23 114
683 23 218
684 23 379
685 23 911
686 22 308
687 22 290
688 22 488
689 22 610
690 22 763
691 22 23
692 22 922
693 22 889
694 21 284
695 21 63
696 21 258
697 21 100
698 21 54
699 21 652
700 21 550
701 21 942
702 21 774
703 20 364
704 20 448
705 20 868
706 20 73
707 20 434
708 20 440
709 20 227
710 20 62
711 20 538
712 20 914
713 20 348
714 19 876
715 19 103
716 19 324
717 19 280
718 19 265
719 19 125
720 19 121
721 19 821
722 19 263
723 19 516
724 18 618
725 18 503
726 18 379
727 18 141
728 18 375
729 18 459
730 18 461
731 18 407
732 18 17
733 18 21
734 18 261
735 18 842
736 17 612
737 17 906
738 17 418
739 17 479
740 17 414
741 17 138
742 16 1000
743 16 86
744 16 518
745 16 862
746 16 607
747 15 749
748 15 485
749 15 563
750 15 739
